NAME: Random_100_2
ELLAPSED_TIME_(ms): 1
TOUR_SIZE: 3310.2415
TOUR_SECTION
0
94
14
98
31
72
16
87
83
93
36
75
17
25
47
23
69
3
70
30
80
74
6
78
48
55
63
41
8
7
57
4
5
81
18
92
73
13
67
35
26
65
53
45
62
29
77
91
59
79
43
32
68
58
21
89
50
66
2
95
27
33
39
22
12
60
54
61
28
10
34
1
19
90
82
46
15
42
84
52
51
20
76
85
44
40
86
97
11
38
88
96
9
99
37
64
49
71
24
56
0
EOF
